[VALIDATOR STDOUT]
Checking plan: /home/fjl2401/Safety-gen/benchmark_problems/rovers/optic_results/rover5_waypoint25_objective8_camera5_goal8_seed25002.plan
Plan executed successfully - checking goal
Goal not satisfied
Plan invalid


Failed plans:
 /home/fjl2401/Safety-gen/benchmark_problems/rovers/optic_results/rover5_waypoint25_objective8_camera5_goal8_seed25002.plan
